c WARNING: for repeatability, setting FPU to use double precision
d VARIABLES            73340        
d CONSTRAINTS          260348       
c ============================[ Problem Statistics ]=============================
c |                                                                             |
c |  Number of variables:         73340                                         |
c |  Number of clauses:          260348                                         |
c |  Parse time:                   0.04 s                                       |
c |                                                                             |
c ============================[ Search Statistics ]==============================
c | Conflicts |          ORIGINAL         |          LEARNT          | Progress |
c |           |    Vars  Clauses Literals |    Limit  Clauses Lit/Cl |          |
c ===============================================================================
c |       100 |   54070   210718   529511 |    77263      100     40 | 26.275 % |
c |       250 |   54070   210718   529511 |    84989      250     33 | 26.275 % |
c |       475 |   54070   210718   529511 |    93488      475     21 | 26.275 % |
c |       812 |   54070   210718   529511 |   102837      812     25 | 26.275 % |
c |      1318 |   54070   210718   529511 |   113121     1318     31 | 26.275 % |
c |      2077 |   54070   210718   529511 |   124433     2077     29 | 26.275 % |
c |      3216 |   54070   210718   529511 |   136876     3216     40 | 26.275 % |
c |      4924 |   54070   210718   529511 |   150564     4924     35 | 26.275 % |
c |      7486 |   54070   210718   529511 |   165620     7486     51 | 26.275 % |
c |     11330 |   54069   210714   529501 |   182182    11329     52 | 26.276 % |
c |     17096 |   54069   210714   529501 |   200401    17095     56 | 26.276 % |
c |     25745 |   54069   210714   529501 |   220441    25744     70 | 26.276 % |
c |     38719 |   54069   210714   529501 |   242485    38718     75 | 26.276 % |
c |     58180 |   54069   210714   529501 |   266733    58179     90 | 26.276 % |
c |     87372 |   54069   210714   529501 |   293407    87371    101 | 26.276 % |
c |    131161 |   54069   210714   529501 |   322747   131160    112 | 26.276 % |
c |    196845 |   54069   210714   529501 |   355022   196844    117 | 26.276 % |
c |    295371 |   54069   210714   529501 |   390524   295370    117 | 26.276 % |
c |    443160 |   54069   210714   529501 |   429577    70081     60 | 26.276 % |
c |    664843 |   54069   210714   529501 |   472535   291764     70 | 26.276 % |
c |    997368 |   54069   210714   529501 |   519788   170023     74 | 26.276 % |
c |   1496156 |   54069   210714   529501 |   571767   168516     66 | 26.276 % |
c |   2244338 |   54069   210714   529501 |   628944   362696     73 | 26.276 % |
c |   3366612 |   54069   210714   529501 |   691838   278856     63 | 26.276 % |
c |   5050023 |   54069   210714   529501 |   761022   616232     95 | 26.276 % |
c ===============================================================================
c restarts              : 10236
c conflicts             : 6296518        (3512 /sec)
c decisions             : 12390614       (0.00 % random) (6911 /sec)
c propagations          : 4375074144     (2440309 /sec)
c conflict literals     : 540887236      (30.54 % deleted)
d RESTARTS             10236
d FAILURES             6296518      
d NODES                12390614     
d BACKTRACKS           12390614     
d PROPAGATIONS         4375074144   
d NOGOODSIZE           85.90 
d MEMORY               518.00 
d TIME                 1792.84 

s UNKNOWN
